(declare-fun temp10431_1 () (_ BitVec 64))
(declare-fun ARGNAME_use_input_stats_NAMEEND () (_ BitVec 64))
(declare-fun temp10431_2 () (_ BitVec 64))
(declare-fun var985537 () (_ BitVec 64))
(declare-fun var985545 () (_ BitVec 64))
(declare-fun temp10431_3 () (_ BitVec 64))
(declare-fun temp10431_4 () (_ BitVec 64))
(declare-fun ARGNAME_input_NAMEEND_DIMSIZE
             ()
             (Array (_ BitVec 64) (_ BitVec 64)))
(declare-fun temp10431_5 () (_ BitVec 64))
(declare-fun temp10431_6 () (_ BitVec 64))
(declare-fun temp10431_7 () (_ BitVec 64))
(declare-fun temp10431_8 () (_ BitVec 64))
(declare-fun temp10431_9 () (_ BitVec 64))
(declare-fun temp10431_10 () (_ BitVec 64))
(declare-fun temp10431_11 () (_ BitVec 64))
(declare-fun temp10431_12 () (_ BitVec 64))
(declare-fun temp10431_13 () (_ BitVec 64))
(declare-fun temp10431_14 () (_ BitVec 64))
(declare-fun temp10431_15 () (_ BitVec 64))
(declare-fun temp10431_16 () (_ BitVec 64))
(declare-fun temp10431_17 () (_ BitVec 64))
(declare-fun temp10431_18 () (_ BitVec 64))
(declare-fun temp10431_19 () (_ BitVec 64))
(declare-fun temp10431_20 () (_ BitVec 64))
(declare-fun temp10431_21 () (_ BitVec 64))
(declare-fun temp10431_22 () (_ BitVec 64))
(declare-fun temp10431_23 () (_ BitVec 64))
(declare-fun ARGNAME_input_NAMEEND_DIM () (_ BitVec 64))
(declare-fun temp10431_24 () (_ BitVec 64))
(declare-fun temp10431_25 () (_ BitVec 64))
(declare-fun temp10431_26 () (_ BitVec 64))
(declare-fun temp10431_27 () (_ BitVec 64))
(declare-fun temp10431_28 () (_ BitVec 64))
(declare-fun var2039185 () (_ BitVec 64))
(declare-fun temp10431_29 () (_ BitVec 64))
(declare-fun var2235793 () (_ BitVec 64))
(declare-fun temp10431_30 () (_ BitVec 64))
(declare-fun temp10431_31 () (_ BitVec 64))
(declare-fun temp10431_32 () (_ BitVec 64))
(declare-fun temp10431_33 () (_ BitVec 64))
(declare-fun temp10431_34 () (_ BitVec 64))
(declare-fun var2753483 () (_ BitVec 64))
(declare-fun temp10431_35 () (_ BitVec 64))
(declare-fun var2756010 () (_ BitVec 64))
(declare-fun temp10431_36 () (_ BitVec 64))
(declare-fun temp10431_38 () (_ BitVec 64))
(declare-fun temp10431_37 () (_ BitVec 64))
(declare-fun temp10431_39 () (_ BitVec 64))
(declare-fun var2756375 () (_ BitVec 64))
(declare-fun temp10431_41 () (_ BitVec 64))
(declare-fun temp10431_40 () (_ BitVec 64))
(declare-fun temp10431_42 () (_ BitVec 64))
(declare-fun temp10431_43 () (_ BitVec 64))
(declare-fun temp10431_45 () (_ BitVec 64))
(declare-fun temp10431_44 () (_ BitVec 64))
(declare-fun temp10431_47 () (_ BitVec 64))
(declare-fun temp10431_46 () (_ BitVec 64))
(declare-fun temp10431_48 () (_ BitVec 64))
(declare-fun temp10431_49 () (_ BitVec 64))
(declare-fun temp10431_51 () (_ BitVec 64))
(declare-fun temp10431_50 () (_ BitVec 64))
(declare-fun temp10431_53 () (_ BitVec 64))
(declare-fun temp10431_52 () (_ BitVec 64))
(declare-fun temp10431_54 () (_ BitVec 64))
(declare-fun var9439681 () (_ BitVec 64))
(declare-fun var9439689 () (_ BitVec 64))
(assert (= temp10431_1 #x0000000000000001))
(assert (= ARGNAME_use_input_stats_NAMEEND temp10431_1))
(assert (= temp10431_2 #x0000000000000002))
(assert (= var985537 temp10431_2))
(assert (= var985545 var985537))
(assert (= temp10431_3 #x0000000000000000))
(assert (= temp10431_4 temp10431_3))
(assert (= temp10431_5 (select ARGNAME_input_NAMEEND_DIMSIZE temp10431_4)))
(assert (= temp10431_6 #x0000000000000001))
(assert (= temp10431_7 temp10431_6))
(assert (= temp10431_8 (select ARGNAME_input_NAMEEND_DIMSIZE temp10431_7)))
(assert (= temp10431_9 #x0000000000000002))
(assert (= temp10431_10 temp10431_9))
(assert (= temp10431_11 (select ARGNAME_input_NAMEEND_DIMSIZE temp10431_10)))
(assert (= temp10431_12 #x0000000000000003))
(assert (= temp10431_13 temp10431_12))
(assert (= temp10431_14 (select ARGNAME_input_NAMEEND_DIMSIZE temp10431_13)))
(assert (= temp10431_15 #x0000000000000004))
(assert (= temp10431_16 temp10431_15))
(assert (= temp10431_17 (select ARGNAME_input_NAMEEND_DIMSIZE temp10431_16)))
(assert (= temp10431_18 #x0000000000000005))
(assert (= temp10431_19 temp10431_18))
(assert (= temp10431_20 (select ARGNAME_input_NAMEEND_DIMSIZE temp10431_19)))
(assert (= temp10431_21 #x0000000000000000))
(assert (= temp10431_22 temp10431_21))
(assert (= temp10431_23 (select ARGNAME_input_NAMEEND_DIMSIZE temp10431_22)))
(assert (bvsgt ARGNAME_input_NAMEEND_DIM temp10431_21))
(assert (bvsge temp10431_21 (bvneg ARGNAME_input_NAMEEND_DIM)))
(assert (= temp10431_24 #x0000000000000001))
(assert (= temp10431_25 temp10431_24))
(assert (= temp10431_26 (select ARGNAME_input_NAMEEND_DIMSIZE temp10431_25)))
(assert (bvsgt ARGNAME_input_NAMEEND_DIM temp10431_24))
(assert (bvsge temp10431_24 (bvneg ARGNAME_input_NAMEEND_DIM)))
(assert (= temp10431_27 temp10431_26))
(assert (= temp10431_28 #x0000000000000001))
(assert (= var2039185 temp10431_28))
(assert (= temp10431_29 #x0000000000000000))
(assert (= var2235793 temp10431_29))
(assert (= temp10431_30 temp10431_23))
(assert (= temp10431_31 temp10431_23))
(assert (= temp10431_32 temp10431_23))
(assert (= temp10431_33 temp10431_23))
(assert (= temp10431_34 #x0000000000000001))
(assert (= var2753483 temp10431_34))
(assert (= temp10431_35 #x0000000000000000))
(assert (= var2756010 temp10431_35))
(assert (= temp10431_36 #x0000000000000000))
(assert (= var2756010 temp10431_36))
(assert (= temp10431_38 #x0000000000000000))
(assert (= temp10431_37 temp10431_38))
(assert (= temp10431_39 #x0000000000000001))
(assert (= var2756375 (bvxor ARGNAME_use_input_stats_NAMEEND temp10431_39)))
(assert (= temp10431_41 #x0000000000000000))
(assert (= temp10431_40 temp10431_41))
(assert (= temp10431_42 temp10431_23))
(assert (= temp10431_43 temp10431_26))
(assert (= temp10431_45 #x0000000000000002))
(assert (= temp10431_44 temp10431_45))
(assert (= temp10431_47 #x0000000000000000))
(assert (= temp10431_46 temp10431_47))
(assert (= temp10431_48 temp10431_23))
(assert (= temp10431_49 temp10431_26))
(assert (= temp10431_51 #x0000000000000002))
(assert (= temp10431_50 temp10431_51))
(assert (= temp10431_53 #x0000000000000000))
(assert (= temp10431_52 temp10431_53))
(assert (= temp10431_54 #x0000000000000002))
(assert (= var9439681 temp10431_54))
(assert (= var9439689 var9439681))
(model-add temp10431_1 () (_ BitVec 64) #x0000000000000001)
(model-add ARGNAME_use_input_stats_NAMEEND () (_ BitVec 64) #x0000000000000001)




